Optimal - objective value 29696.00000000
      0 F                  29696                       1
      2 m_14_15                1                       0
      4 m_13_15                1                       0
      6 m_12_15                1                       0
      8 m_11_15                1                       0
     10 m_10_15                1                       0
     12 m_9_15                 1                       0
     14 m_8_15                 1                       0
     16 m_7_15                 1                       0
     18 m_6_15                 1                       0
     20 m_5_15                 1                       0
     22 m_4_15                 1                       0
     24 m_3_15                 1                       0
     26 m_2_15                 1                       0
     28 m_1_15                 1                       0
     30 m_13_14                1                       0
     32 m_12_14                1                       0
     33 m_14_11                1                       0
     36 m_10_14                1                       0
     38 m_9_14                 1                       0
     40 m_8_14                 1                       0
     42 m_7_14                 1                       0
     44 m_6_14                 1                       0
     46 m_5_14                 1                       0
     48 m_4_14                 1                       0
     50 m_3_14                 1                       0
     52 m_2_14                 1                       0
     54 m_1_14                 1                       0
     56 m_12_13                1                       0
     57 m_13_11                1                       0
     60 m_10_13                1                       0
     61 m_13_9                 1                       0
     64 m_8_13                 1                       0
     66 m_7_13                 1                       0
     68 m_6_13                 1                       0
     70 m_5_13                 1                       0
     72 m_4_13                 1                       0
     74 m_3_13                 1                       0
     76 m_2_13                 1                       0
     78 m_1_13                 1                       0
     79 m_12_11                1                       0
     81 m_12_10                1                       0
     83 m_12_9                 1                       0
     85 m_12_8                 1                       0
     88 m_7_12                 1                       0
     90 m_6_12                 1                       0
     92 m_5_12                 1                       0
     94 m_4_12                 1                       0
     96 m_3_12                 1                       0
     98 m_2_12                 1                       0
    100 m_1_12                 1                       0
    102 m_10_11                1                       0
    104 m_9_11                 1                       0
    106 m_8_11                 1                       0
    108 m_7_11                 1                       0
    110 m_6_11                 1                       0
    112 m_5_11                 1                       0
    114 m_4_11                 1                       0
    116 m_3_11                 1                       0
    118 m_2_11                 1                       0
    120 m_1_11                 1                       0
    121 m_10_9                 1                       0
    123 m_10_8                 1                       0
    126 m_7_10                 1                       0
    128 m_6_10                 1                       0
    130 m_5_10                 1                       0
    132 m_4_10                 1                       0
    134 m_3_10                 1                       0
    136 m_2_10                 1                       0
    138 m_1_10                 1                       0
    140 m_8_9                  1                       0
    142 m_7_9                  1                       0
    144 m_6_9                  1                       0
    146 m_5_9                  1                       0
    148 m_4_9                  1                       0
    150 m_3_9                  1                       0
    152 m_2_9                  1                       0
    154 m_1_9                  1                       0
    156 m_7_8                  1                       0
    158 m_6_8                  1                       0
    160 m_5_8                  1                       0
    162 m_4_8                  1                       0
    164 m_3_8                  1                       0
    166 m_2_8                  1                       0
    168 m_1_8                  1                       0
    169 m_7_6                  1                       0
    172 m_5_7                  1                       0
    174 m_4_7                  1                       0
    175 m_7_3                  1                       0
    178 m_2_7                  1                       0
    180 m_1_7                  1                       0
    182 m_5_6                  1                       0
    184 m_4_6                  1                       0
    186 m_3_6                  1                       0
    188 m_2_6                  1                       0
    190 m_1_6                  1                       0
    191 m_5_4                  1                       0
    193 m_5_3                  1                       0
    196 m_2_5                  1                       0
    198 m_1_5                  1                       0
    199 m_4_3                  1                       0
    202 m_2_4                  1                       0
    204 m_1_4                  1                       0
    206 m_2_3                  1                       0
    208 m_1_3                  1                       0
    209 m_2_1                  1                       0
    211 s_15                  15                       0
    212 m_15_15                1                       0
    213 s_14                  13                       0
    214 m_14_14                1                       0
    215 s_13                  11                       0
    216 m_13_13                1                       0
    217 s_12                   8                       0
    218 m_12_12                1                       0
    219 s_11                  14                       0
    220 m_11_11                1                       0
    221 s_10                   9                       0
    222 m_10_10                1                       0
    223 s_9                   12                       0
    224 m_9_9                  1                       0
    225 s_8                   10                       0
    226 m_8_8                  1                       0
    227 s_7                    5                       0
    228 m_7_7                  1                       0
    229 s_6                    7                       0
    230 m_6_6                  1                       0
    231 s_5                    3                       0
    232 m_5_5                  1                       0
    233 s_4                    4                       0
    234 m_4_4                  1                       0
    235 s_3                    6                       0
    236 m_3_3                  1                       0
    237 s_2                    1                       0
    238 m_2_2                  1                       0
    239 s_1                    2                       0
    240 m_1_1                  1                       0
    241 y_15_15                1                       0
    245 y_11_15                1                       0
    247 y_9_15                 1                       0
    257 y_14_14                1                       0
    261 y_10_14                1                       0
    262 y_9_14                 1                       0
    273 y_13_13                1                       0
    276 y_10_13                1                       0
    278 y_8_13                 1                       0
    279 y_7_13                 1                       0
    289 y_12_12                1                       0
    294 y_7_12                 1                       0
    295 y_6_12                 1                       0
    296 y_5_12                 1                       0
    305 y_11_11                1                       0
    307 y_9_11                 1                       0
    321 y_10_10                1                       0
    324 y_7_10                 1                       0
    326 y_5_10                 1                       0
    336 y_10_9                 1                       0
    337 y_9_9                  1                       0
    339 y_7_9                  1                       0
    351 y_10_8                 1                       0
    353 y_8_8                  1                       0
    354 y_7_8                  1                       0
    356 y_5_8                  1                       0
    369 y_7_7                  1                       0
    371 y_5_7                  1                       0
    374 y_2_7                  1                       0
    384 y_7_6                  1                       0
    385 y_6_6                  1                       0
    386 y_5_6                  1                       0
    388 y_3_6                  1                       0
    401 y_5_5                  1                       0
    404 y_2_5                  1                       0
    405 y_1_5                  1                       0
    416 y_5_4                  1                       0
    417 y_4_4                  1                       0
    419 y_2_4                  1                       0
    429 y_7_3                  1                       0
    431 y_5_3                  1                       0
    433 y_3_3                  1                       0
    434 y_2_3                  1                       0
    449 y_2_2                  1                       0
    464 y_2_1                  1                       0
    465 y_1_1                  1                       0
